
Gurobi 12.0.0 (win64) logging started Mon May  4 20:53:34 2026

Set parameter LogFile to value "C:\Users\Asus\Documents\GitHub\logistics-model2\internal-logistics-model2\results\SR_SV_RD\case3\result_SR_SV_RD_case3_P10_eps9999_2026_05_04_20_53.log"
Gurobi Optimizer version 12.0.0 build v12.0.0rc1 (win64 - Windows 10.0 (19045.2))

CPU model: 12th Gen Intel(R) Core(TM) i7-12650H, instruction set [SSE2|AVX|AVX2]
Thread count: 10 physical cores, 16 logical processors, using up to 16 threads

Non-default parameters:
TimeLimit  600
MIPGap  0.01
Presolve  2

Optimize a model with 2752 rows, 823 columns and 13949 nonzeros
Model fingerprint: 0xca0381cb
Variable types: 138 continuous, 685 integer (660 binary)
Coefficient statistics:
  Matrix range     [1e+00, 5e+02]
  Objective range  [1e-03, 1e+00]
  Bounds range     [1e+00, 3e+01]
  RHS range        [1e+00, 1e+04]
Presolve removed 2514 rows and 742 columns
Presolve time: 0.01s
Presolved: 238 rows, 81 columns, 881 nonzeros
Variable types: 28 continuous, 53 integer (46 binary)
Found heuristic solution: objective 118.4730000
Found heuristic solution: objective 111.4420000
Root relaxation presolve removed 22 rows and 1 columns
Root relaxation presolved: 216 rows, 83 columns, 828 nonzeros


Root relaxation: objective 2.180000e-01, 39 iterations, 0.00 seconds (0.00 work units)

    Nodes    |    Current Node    |     Objective Bounds      |     Work
 Expl Unexpl |  Obj  Depth IntInf | Incumbent    BestBd   Gap | It/Node Time

     0     0    0.21800    0   15  111.44200    0.21800   100%     -    0s
H    0     0                     108.4420000    0.21800   100%     -    0s
     0     0    0.22550    0   24  108.44200    0.22550   100%     -    0s
     0     0    0.22550    0   24  108.44200    0.22550   100%     -    0s
H    0     0                     107.4180000   53.30500  50.4%     -    0s
     0     0   53.30500    0   25  107.41800   53.30500  50.4%     -    0s
     0     0   53.34100    0   23  107.41800   53.34100  50.3%     -    0s
H    0     0                     106.4610000   59.23900  44.4%     -    0s
H    0     0                     106.4260000   59.25400  44.3%     -    0s
     0     0   59.25400    0   21  106.42600   59.25400  44.3%     -    0s
     0     0   65.21800    0   24  106.42600   65.21800  38.7%     -    0s
     0     0   65.21800    0   27  106.42600   65.21800  38.7%     -    0s
     0     0   65.21800    0   29  106.42600   65.21800  38.7%     -    0s
H    0     0                     104.4430000   65.21800  37.6%     -    0s
     0     0   65.25200    0   24  104.44300   65.25200  37.5%     -    0s
     0     0   69.21800    0   27  104.44300   69.21800  33.7%     -    0s
     0     0   69.22500    0   26  104.44300   69.22500  33.7%     -    0s
     0     0   69.22700    0   26  104.44300   69.22700  33.7%     -    0s
     0     0   70.22300    0   22  104.44300   70.22300  32.8%     -    0s
     0     0   70.22300    0   22  104.44300   70.22300  32.8%     -    0s
H    0     0                     104.4280000   70.22300  32.8%     -    0s
     0     2   70.22300    0   22  104.42800   70.22300  32.8%     -    0s
H   27    26                     104.4270000   70.22300  32.8%  17.1    0s
H   45    26                     103.4270000   70.22300  32.1%  14.4    0s
H  119    43                     102.4040000   70.22300  31.4%  12.9    0s

Cutting planes:
  Learned: 1
  Implied bound: 16
  MIR: 52
  Inf proof: 1
  Zero half: 1
  RLT: 1
  Relax-and-lift: 7

Explored 307 nodes (3256 simplex iterations) in 0.10 seconds (0.07 work units)
Thread count was 16 (of 16 available processors)

Solution count 10: 102.404 103.427 104.427 ... 111.442

Optimal solution found (tolerance 1.00e-02)
Best objective 1.024040000000e+02, best bound 1.024040000000e+02, gap 0.0000%
